[VALIDATOR STDOUT]
Checking plan: /home/jfan5/Safety-gen/runs/benchmark/optic/ferry_20260129_162355/ferry/optic_results/ferry-l06-c04-s6001.plan
Plan executed successfully - checking goal
Plan valid
Final value: 16 

Successful plans:
Value: 16
 /home/jfan5/Safety-gen/runs/benchmark/optic/ferry_20260129_162355/ferry/optic_results/ferry-l06-c04-s6001.plan 16
